0 9 3 4 7 1 9 4 7 3 6 7 2 9 3
9 0 4 8 1 6 2 4 1 8 2 5 2 7 9
3 4 0 4 2 2 1 6 1 4 2 1 4 5 5
4 8 4 0 2 3 3 3 1 6 4 2 3 2 5
7 1 2 2 0 3 2 4 1 1 2 2 1 2 6
1 6 2 3 3 0 1 4 1 3 2 2 2 4 3
9 2 1 3 2 1 0 4 1 1 1 1 2 2 3
4 4 6 3 4 4 4 0 3 4 4 4 3 1 3
7 1 1 1 1 1 1 3 0 1 1 1 1 2 2
3 8 4 6 1 3 1 4 1 0 1 1 1 2 2
6 2 2 4 2 2 1 4 1 1 0 1 1 1 2
7 5 1 2 2 2 1 4 1 1 1 0 1 1 1
2 2 4 3 1 2 2 3 1 1 1 1 0 1 1
9 7 5 2 2 4 2 1 2 2 1 1 1 0 1
3 9 5 5 6 3 3 3 2 2 2 1 1 1 0
